Gurobi Optimizer version 9.1.0 build v9.1.0rc0 (linux64)
Thread count: 8 physical cores, 16 logical processors, using up to 16 threads
Optimize a model with 312174 rows, 301200 columns and 1752950 nonzeros
Model fingerprint: 0xc0fd4381
Variable types: 0 continuous, 301200 integer (301200 binary)
Coefficient statistics:
  Matrix range     [1e+00, 1e+00]
  Objective range  [1e+01, 5e+04]
  Bounds range     [1e+00, 1e+00]
  RHS range        [1e+00, 5e+02]
Presolve removed 50 rows and 50 columns (presolve time = 5s) ...
Presolve added 0 rows and 4950 columns
Presolve removed 50 rows and 0 columns
Presolve time: 7.91s
Presolved: 312124 rows, 306150 columns, 1267850 nonzeros
Variable types: 0 continuous, 306150 integer (306150 binary)
Found heuristic solution: objective 524173.00000

Concurrent LP optimizer: primal simplex, dual simplex, and barrier
Showing barrier log only...

Root barrier log...

Ordering time: 0.11s

Barrier statistics:
 Dense cols : 600
 AA' NZ     : 9.758e+05
 Factor NZ  : 6.535e+06 (roughly 300 MBytes of memory)
 Factor Ops : 3.028e+09 (less than 1 second per iteration)
 Threads    : 6

                  Objective                Residual
Iter       Primal          Dual         Primal    Dual     Compl     Time
   0   3.05780597e+08 -4.66373917e+08  4.59e+02 2.93e+01  1.62e+04    14s
   1   1.31713428e+06 -4.70459297e+08  1.46e+00 9.08e+02  5.55e+02    15s
   2   7.59473338e+05 -1.98550277e+08  3.94e-01 3.68e+02  2.23e+02    16s
   3   6.67515846e+05 -9.29876126e+07  2.15e-01 1.68e+02  1.04e+02    17s
   4   5.83316463e+05 -2.90262769e+07  4.41e-02 5.31e+01  3.24e+01    18s
   5   5.44417663e+05 -2.40633867e+06  6.18e-03 1.27e+01  3.21e+00    19s
   6   5.06647996e+05 -4.13582088e+05  3.33e-03 3.14e+00  1.00e+00    19s
   7   4.88859285e+05  3.41129139e+04  2.67e-03 1.37e+00  4.94e-01    20s
   8   4.76716826e+05  2.05727949e+05  2.29e-03 6.91e-01  2.94e-01    21s
   9   4.65646955e+05  2.68391125e+05  1.97e-03 4.53e-01  2.14e-01    22s
  10   4.54791591e+05  3.03806018e+05  1.69e-03 3.16e-01  1.64e-01    23s
  11   4.45208667e+05  3.38733346e+05  1.47e-03 1.76e-01  1.15e-01    24s
  12   4.36443149e+05  3.50775324e+05  1.26e-03 1.29e-01  9.28e-02    25s
  13   4.25962119e+05  3.62561702e+05  1.01e-03 8.34e-02  6.86e-02    26s
  14   4.16936458e+05  3.69660453e+05  7.96e-04 5.56e-02  5.12e-02    27s
  15   4.11955733e+05  3.74531467e+05  6.89e-04 3.68e-02  4.05e-02    28s
  16   4.05355380e+05  3.77554089e+05  5.27e-04 2.53e-02  3.01e-02    28s
  17   4.01903810e+05  3.79353203e+05  4.42e-04 1.87e-02  2.44e-02    29s
  18   3.97230899e+05  3.80527082e+05  3.30e-04 1.56e-02  1.81e-02    30s
  19   3.94853895e+05  3.81449539e+05  2.71e-04 1.22e-02  1.45e-02    31s
  20   3.92975569e+05  3.82141366e+05  2.23e-04 9.63e-03  1.17e-02    32s
  21   3.91687265e+05  3.82889603e+05  1.91e-04 7.20e-03  9.51e-03    33s
  22   3.90681256e+05  3.83508824e+05  1.64e-04 5.28e-03  7.75e-03    34s
  23   3.89411499e+05  3.83740307e+05  1.33e-04 4.37e-03  6.12e-03    35s
  24   3.88737319e+05  3.84040892e+05  1.15e-04 3.30e-03  5.07e-03    35s
  25   3.88146091e+05  3.84180156e+05  9.73e-05 2.75e-03  4.28e-03    36s
  26   3.87614473e+05  3.84288525e+05  8.25e-05 2.35e-03  3.59e-03    37s
  27   3.87162164e+05  3.84402591e+05  6.92e-05 1.90e-03  2.98e-03    38s
  28   3.86745296e+05  3.84493498e+05  5.64e-05 1.58e-03  2.43e-03    39s
  29   3.86357416e+05  3.84581718e+05  4.45e-05 1.29e-03  1.92e-03    39s
  30   3.86187090e+05  3.84684693e+05  3.98e-05 9.71e-04  1.62e-03    40s
  31   3.86022087e+05  3.84728824e+05  3.46e-05 8.21e-04  1.40e-03    41s
  32   3.85851036e+05  3.84758646e+05  2.95e-05 7.19e-04  1.18e-03    42s
  33   3.85707507e+05  3.84832453e+05  2.50e-05 4.84e-04  9.43e-04    43s
  34   3.85595624e+05  3.84852289e+05  2.15e-05 4.17e-04  8.01e-04    44s
  35   3.85549830e+05  3.84883182e+05  1.99e-05 3.21e-04  7.18e-04    44s
  36   3.85450979e+05  3.84891489e+05  1.66e-05 2.97e-04  6.03e-04    45s
  37   3.85400406e+05  3.84901055e+05  1.49e-05 2.64e-04  5.38e-04    46s
  38   3.85319672e+05  3.84916225e+05  1.23e-05 2.39e-04  4.35e-04    46s
  39   3.85282185e+05  3.84928987e+05  1.09e-05 2.00e-04  3.81e-04    47s
  40   3.85233690e+05  3.84937187e+05  9.17e-06 1.71e-04  3.19e-04    48s
  41   3.85195686e+05  3.84942902e+05  7.83e-06 1.47e-04  2.72e-04    49s
  42   3.85155073e+05  3.84951240e+05  6.37e-06 1.17e-04  2.20e-04    50s
  43   3.85124020e+05  3.84960081e+05  5.25e-06 8.49e-05  1.77e-04    51s
  44   3.85101801e+05  3.84964240e+05  4.39e-06 7.08e-05  1.48e-04    51s
  45   3.85078444e+05  3.84968849e+05  3.57e-06 5.56e-05  1.18e-04    52s
  46   3.85065334e+05  3.84972338e+05  3.12e-06 4.71e-05  1.00e-04    53s
  47   3.85045820e+05  3.84974909e+05  2.39e-06 3.79e-05  7.63e-05    54s
  48   3.85034497e+05  3.84977504e+05  1.98e-06 3.01e-05  6.13e-05    55s
  49   3.85027148e+05  3.84979941e+05  1.71e-06 2.31e-05  5.08e-05    56s
  50   3.85021246e+05  3.84981065e+05  1.48e-06 1.97e-05  4.32e-05    57s
  51   3.85014711e+05  3.84981916e+05  1.21e-06 1.69e-05  3.53e-05    58s
  52   3.85010067e+05  3.84983660e+05  9.98e-07 1.17e-05  2.84e-05    58s
  53   3.85005460e+05  3.84984199e+05  8.08e-07 9.91e-06  2.29e-05    59s
  54   3.85000840e+05  3.84984837e+05  6.21e-07 8.06e-06  1.72e-05    60s
  55   3.84997276e+05  3.84985330e+05  4.53e-07 6.60e-06  1.28e-05    61s
  56   3.84996165e+05  3.84985804e+05  4.05e-07 5.36e-06  1.11e-05    61s
  57   3.84994706e+05  3.84986399e+05  3.40e-07 3.40e-06  8.92e-06    62s
  58   3.84993337e+05  3.84986550e+05  2.76e-07 2.95e-06  7.29e-06    63s
  59   3.84992541e+05  3.84986875e+05  2.40e-07 1.98e-06  6.08e-06    64s
  60   3.84991755e+05  3.84987122e+05  2.08e-07 1.35e-06  4.97e-06    65s
  61   3.84990441e+05  3.84987239e+05  1.45e-07 9.46e-07  3.43e-06    65s
  62   3.84990273e+05  3.84987308e+05  1.36e-07 7.07e-07  3.18e-06    66s
  63   3.84989241e+05  3.84987352e+05  8.45e-08 5.33e-07  2.03e-06    67s
  64   3.84989020e+05  3.84987401e+05  7.52e-08 4.11e-07  1.74e-06    68s
  65   3.84988513e+05  3.84987448e+05  5.05e-08 2.74e-07  1.14e-06    69s
  66   3.84988138e+05  3.84987501e+05  3.06e-08 1.35e-07  6.82e-07    70s
  67   3.84988015e+05  3.84987532e+05  2.38e-08 1.02e-07  5.17e-07    71s
  68   3.84987796e+05  3.84987538e+05  1.21e-08 7.70e-08  2.77e-07    71s
  69   3.84987726e+05  3.84987541e+05  8.42e-09 6.45e-08  1.99e-07    72s
  70   3.84987695e+05  3.84987547e+05  6.79e-09 3.92e-08  1.58e-07    72s
  71   3.84987626e+05  3.84987556e+05  3.40e-09 7.76e-08  7.56e-08    73s
  72   3.84987615e+05  3.84987557e+05  1.05e-08 5.90e-08  6.27e-08    74s
  73   3.84987615e+05  3.84987557e+05  3.76e-08 5.89e-08  6.25e-08    75s
  74   3.84987615e+05  3.84987557e+05  3.75e-08 5.79e-08  6.24e-08    75s
  75   3.84987615e+05  3.84987557e+05  3.74e-08 5.96e-09  6.23e-08    76s
  76   3.84987615e+05  3.84987557e+05  3.74e-08 5.95e-09  6.23e-08    77s
  77   3.84987615e+05  3.84987557e+05  3.73e-08 6.33e-09  6.22e-08    78s
  78   3.84987615e+05  3.84987557e+05  3.73e-08 6.32e-09  6.22e-08    79s
  79   3.84987615e+05  3.84987557e+05  3.73e-08 6.40e-09  6.22e-08    80s
  80   3.84987615e+05  3.84987557e+05  3.73e-08 6.38e-09  6.22e-08    81s
  81   3.84987615e+05  3.84987557e+05  3.73e-08 6.29e-09  6.22e-08    82s
  82   3.84987615e+05  3.84987557e+05  3.73e-08 6.26e-09  6.22e-08    83s

Barrier performed 82 iterations in 83.00 seconds
Sub-optimal termination - objective 3.84987615e+05


Root crossover log...

  112165 DPushes remaining with DInf 0.0000000e+00                83s
    5423 DPushes remaining with DInf 0.0000000e+00                86s
    4543 DPushes remaining with DInf 0.0000000e+00                90s
    1555 DPushes remaining with DInf 0.0000000e+00                95s
     185 DPushes remaining with DInf 0.0000000e+00               100s
       0 DPushes remaining with DInf 0.0000000e+00               101s

    2196 PPushes remaining with PInf 7.0952058e-06               101s
       0 PPushes remaining with PInf 6.8424051e-05               102s

  Push phase complete: Pinf 6.8424051e-05, Dinf 2.3950907e-09    102s


Root simplex log...

Iteration    Objective       Primal Inf.    Dual Inf.      Time
   21915    3.8498756e+05   6.842405e-05   0.000000e+00    103s
   21917    3.8498756e+05   0.000000e+00   0.000000e+00    103s
   21917    3.8498756e+05   0.000000e+00   0.000000e+00    103s

Solved with barrier

Root relaxation: objective 3.849876e+05, 21917 iterations, 91.57 seconds
Total elapsed time = 106.51s

    Nodes    |    Current Node    |     Objective Bounds      |     Work
 Expl Unexpl |  Obj  Depth IntInf | Incumbent    BestBd   Gap | It/Node Time

     0     0 384987.560    0 29959 524173.000 384987.560  26.6%     -  109s
H    0     0                    426440.00000 384987.560  9.72%     -  112s
H    0     0                    421229.00000 384987.560  8.60%     -  115s
     0     0 384987.560    0 29959 421229.000 384987.560  8.60%     -  280s

Explored 1 nodes (28876 simplex iterations) in 300.05 seconds
Thread count was 16 (of 16 available processors)

Solution count 3: 421229 426440 524173 

Time limit reached
Best objective 4.212290000000e+05, best bound 3.849880000000e+05, gap 8.6036%

User-callback calls 23301, time in user-callback 0.46 sec
Result: runtime=280.23sec; objective=421229; gap=8.6036%
Solution written to /autofs/unityaccount/cremi/mdeboute/Bureau/multi-period-flp/solution//instSingle_I50_J500_T12_1_result.txt
